%%% static parameters %%%
timespan = 1;
Fact = [2];
Distr1 = [5];
Distr2 = [20];
Clients_N = [100];
Demand_W = [15];
Lt0 = [4];
Lt1 = [4];
SS_ = [0.85];
DS_D = [20];
K = [200];
MA = [500];
%%% dynamic parameters %%%
lost_ratio_sales_ret_th = 0.005855718303552985;
lost_ratio_sales_ret_w = 29;
lost_ratio_sales_dis_th = 0.008734667933495525;
lost_ratio_sales_dis_w = 58;
lost_ratio_sales_fac_th = 0.0017332897361400147;
lost_ratio_sales_fac_w = 10;
stock_customer_MA_mean_relative_th = 0.5518636123036501;
stock_customer_MA_mean_relative_w = 38;
stock_distributor_MA_mean_relative_th = 0.04924887231549624;
stock_distributor_MA_mean_relative_w = 66;
stock_retailer_MA_mean_relative_th = 0.18088254538024096;
stock_retailer_MA_mean_relative_w = 98;
stock_factory_MA_mean_relative_th = 0.6712383384447695;
stock_factory_MA_mean_relative_w = 94;
